language ESSENCE' 1.0

letting jobs = 102
letting horizon = 804
letting resourcesRenew = 2
letting resourcesNonrenew = 2
letting resourceLimits = [24, 24, 398, 352]
letting successors = [[2, 3, 4, 5, 6, 7, 8, 9, 10, 11, 12, 13, 14, 15, 16, 17, 18, 19, 20, 21, 22, 24, 27, 32], [59, 51, 49, 46, 44, 43, 42, 41, 39, 37, 29, 28, 23], [59, 51, 49, 43, 40, 39, 37, 35, 29, 26], [62, 45, 43, 39, 38, 37, 31, 28, 25], [62, 59, 53, 50, 43, 37, 35, 34, 31], [59, 53, 52, 51, 50, 49, 46, 43, 40, 39, 37, 36, 35], [62, 53, 50, 49, 46, 45, 39, 38, 37, 36, 34], [62, 50, 47, 39, 31, 23], [59, 51, 49, 40, 35, 26], [60, 59, 54, 53, 52, 43, 37, 35, 30], [59, 53, 43, 40, 37, 35, 31], [57, 37, 35, 26], [59, 54, 48, 47, 45, 31], [76, 60, 59, 57, 54, 52, 51, 47, 46, 35], [71, 54, 51, 50, 49, 47, 46, 33], [71, 67, 63, 57, 54, 52, 51, 50, 48, 45, 37], [71, 60, 59, 57, 52, 36, 34], [59, 51, 43, 28], [67, 63, 60, 54, 51, 50, 48, 47, 45, 39], [65, 59, 53, 52, 51, 50, 48, 36], [76, 68, 57, 52, 51, 50, 46, 35], [81, 76, 68, 64, 63, 60, 57, 55, 52, 51, 50, 49, 46, 45], [76, 68, 60, 57, 54, 48, 35], [60, 57, 53, 51, 50, 48, 36], [76, 71, 68, 67, 60, 55, 52, 51, 50, 48, 44], [76, 71, 62, 60, 54, 52, 50, 48, 47, 46], [66, 60, 50, 48, 45, 36], [66, 65, 57, 52, 50, 48, 36], [66, 57, 56, 52, 50, 48, 36], [73, 71, 65, 56, 50, 49, 36], [81, 76, 71, 68, 67, 63, 60, 57, 52, 51, 49, 46], [73, 71, 64, 63, 62, 57, 55, 51, 50, 49, 45], [81, 79, 76, 75, 68, 66, 65, 63, 59, 58, 57, 56, 55, 48], [76, 65, 64, 63, 58, 56, 51, 48, 47], [81, 73, 71, 67, 66, 64, 63, 61, 58, 55, 45], [101, 99, 76, 75, 74, 69, 67, 64, 63, 58, 47], [101, 99, 76, 74, 73, 69, 66, 65, 58, 47], [97, 75, 74, 73, 63, 60, 52, 51], [101, 100, 99, 93, 81, 79, 78, 76, 75, 73, 72, 70, 69, 66, 65, 61, 55], [98, 96, 81, 79, 76, 73, 67, 66, 65, 64, 63, 60, 58, 57], [100, 80, 76, 70, 69, 66, 65, 58, 55, 53], [79, 73, 66, 63, 62, 55, 50], [101, 100, 99, 95, 92, 81, 75, 74, 73, 65, 58, 57], [99, 95, 81, 79, 78, 75, 74, 73, 66, 65, 63, 57], [100, 99, 91, 80, 79, 75, 74, 72, 69, 65, 56], [101, 100, 99, 95, 93, 90, 78, 75, 73, 69, 66, 65, 61], [100, 93, 89, 81, 80, 79, 78, 70, 68, 55], [101, 100, 99, 98, 97, 94, 93, 92, 91, 90, 85, 78, 74, 73, 72, 61], [100, 98, 97, 95, 94, 93, 79, 75, 72, 70, 66, 61], [101, 100, 99, 98, 97, 96, 93, 80, 74, 70, 58], [101, 98, 95, 93, 89, 86, 79, 78, 72, 70, 69, 66], [100, 99, 98, 96, 93, 92, 90, 80, 77, 58], [101, 99, 98, 97, 95, 94, 91, 89, 88, 79, 77, 73, 71], [95, 94, 90, 88, 80, 79, 77, 64], [98, 96, 95, 92, 91, 90, 87, 86, 85, 83, 82, 77], [98, 97, 96, 95, 93, 86, 85, 84, 83, 70], [94, 93, 90, 89, 87, 86, 85, 82, 80, 77], [94, 91, 89, 86, 85, 83, 82, 78, 72], [101, 99, 95, 93, 91, 85, 67], [95, 93, 88, 87, 86, 85, 84, 70], [96, 89, 88, 86, 83, 82, 77], [89, 88, 87, 86, 85, 83, 77], [93, 85, 83, 82, 77, 72], [93, 91, 85, 83, 82, 72], [97, 89, 88, 86, 82, 77], [92, 91, 88, 87, 82], [92, 90, 89, 86, 82], [97, 94, 88, 77], [94, 85, 83, 82], [92, 90, 82], [86, 83, 82], [87, 84], [87, 83], [88, 83], [96, 86], [89, 83], [84], [88], [85], [83], [90], [102], [102], [102], [102], [102], [102], [102], [102], [102], [102], [102], [102], [102], [102], [102], [102], [102], [102], [102], [102], []]
letting durations = [[0], [2, 6, 9], [4, 6, 10], [2, 3, 3], [2, 4, 5], [3, 5, 10], [4, 6, 9], [4, 6, 6], [3, 5, 6], [5, 7, 10], [5, 6, 8], [4, 6, 7], [2, 5, 8], [8, 9, 9], [4, 5, 7], [1, 6, 10], [9, 9, 10], [4, 7, 9], [7, 8, 9], [1, 5, 10], [1, 2, 7], [4, 8, 9], [2, 5, 10], [2, 4, 5], [5, 5, 6], [5, 7, 8], [1, 5, 7], [5, 8, 9], [2, 3, 4], [7, 8, 10], [2, 3, 7], [1, 4, 9], [1, 7, 8], [1, 6, 10], [2, 3, 9], [2, 3, 4], [2, 5, 8], [7, 8, 9], [6, 7, 9], [4, 5, 10], [4, 6, 9], [3, 4, 6], [1, 1, 7], [5, 6, 8], [2, 5, 7], [2, 4, 5], [3, 6, 8], [1, 3, 9], [1, 5, 9], [5, 6, 6], [4, 6, 10], [2, 3, 7], [2, 4, 6], [2, 4, 10], [5, 9, 10], [4, 5, 8], [2, 3, 5], [3, 7, 9], [5, 8, 9], [3, 3, 9], [2, 3, 9], [6, 8, 10], [1, 3, 9], [4, 6, 10], [1, 4, 10], [5, 9, 10], [4, 6, 9], [1, 3, 5], [1, 4, 9], [3, 4, 6], [1, 2, 10], [1, 6, 8], [1, 5, 9], [3, 5, 10], [4, 9, 10], [8, 9, 10], [1, 5, 8], [3, 3, 6], [8, 8, 10], [4, 6, 10], [2, 4, 6], [4, 7, 8], [5, 5, 10], [2, 6, 7], [3, 4, 9], [8, 9, 9], [1, 1, 5], [2, 7, 10], [3, 6, 10], [1, 2, 4], [2, 8, 9], [1, 6, 10], [1, 2, 8], [4, 4, 8], [1, 5, 6], [1, 5, 9], [3, 4, 6], [1, 3, 4], [1, 4, 5], [7, 7, 8], [3, 4, 5], [0]]
letting resourceUsage = [[[0, 0, 0, 0]], [[5, 5, 0, 8], [4, 3, 1, 0], [4, 1, 0, 4]], [[3, 4, 6, 0], [3, 2, 5, 0], [3, 2, 0, 8]], [[2, 2, 0, 10], [1, 2, 0, 7], [1, 2, 2, 0]], [[4, 4, 4, 0], [4, 4, 0, 7], [2, 4, 0, 6]], [[2, 5, 0, 1], [1, 5, 1, 0], [1, 5, 0, 1]], [[3, 4, 9, 0], [2, 3, 7, 0], [2, 1, 7, 0]], [[2, 5, 7, 0], [2, 3, 5, 0], [2, 2, 0, 4]], [[3, 5, 7, 0], [2, 5, 0, 4], [2, 5, 5, 0]], [[2, 3, 5, 0], [1, 3, 5, 0], [1, 1, 2, 0]], [[4, 3, 0, 3], [4, 1, 8, 0], [3, 1, 8, 0]], [[4, 3, 7, 0], [3, 1, 6, 0], [1, 1, 0, 6]], [[3, 3, 9, 0], [3, 3, 0, 8], [2, 3, 4, 0]], [[4, 1, 10, 0], [4, 1, 0, 3], [4, 1, 9, 0]], [[5, 3, 0, 5], [4, 3, 0, 5], [4, 3, 0, 4]], [[5, 4, 3, 0], [4, 2, 3, 0], [4, 2, 2, 0]], [[5, 2, 10, 0], [4, 1, 0, 7], [4, 1, 0, 4]], [[3, 4, 0, 4], [2, 3, 0, 4], [2, 2, 0, 4]], [[3, 4, 8, 0], [2, 2, 7, 0], [1, 1, 0, 3]], [[5, 5, 0, 4], [4, 3, 4, 0], [3, 1, 0, 3]], [[4, 3, 0, 6], [4, 3, 1, 0], [3, 3, 1, 0]], [[3, 4, 0, 8], [3, 2, 7, 0], [3, 2, 0, 7]], [[3, 3, 3, 0], [2, 2, 0, 7], [2, 2, 0, 5]], [[3, 3, 0, 3], [2, 2, 0, 3], [2, 2, 3, 0]], [[4, 4, 0, 4], [3, 4, 8, 0], [3, 4, 7, 0]], [[2, 1, 0, 4], [2, 1, 7, 0], [1, 1, 3, 0]], [[5, 2, 8, 0], [3, 1, 0, 7], [1, 1, 0, 7]], [[1, 2, 4, 0], [1, 2, 0, 2], [1, 2, 3, 0]], [[5, 4, 6, 0], [5, 4, 0, 5], [5, 4, 0, 4]], [[5, 5, 0, 1], [3, 5, 5, 0], [3, 5, 4, 0]], [[4, 3, 0, 5], [3, 1, 4, 0], [3, 1, 3, 0]], [[2, 3, 3, 0], [1, 2, 0, 6], [1, 2, 0, 5]], [[3, 5, 0, 4], [3, 5, 7, 0], [2, 5, 0, 3]], [[3, 4, 0, 2], [3, 3, 0, 1], [3, 3, 4, 0]], [[3, 5, 0, 5], [2, 4, 0, 5], [1, 3, 0, 3]], [[5, 5, 8, 0], [2, 3, 0, 5], [1, 3, 4, 0]], [[4, 5, 5, 0], [4, 5, 0, 7], [3, 5, 3, 0]], [[4, 1, 0, 8], [3, 1, 0, 7], [2, 1, 0, 7]], [[3, 1, 0, 10], [3, 1, 2, 0], [1, 1, 0, 3]], [[2, 3, 0, 8], [2, 2, 4, 0], [2, 2, 2, 0]], [[2, 2, 6, 0], [2, 1, 0, 3], [2, 1, 0, 2]], [[5, 3, 8, 0], [3, 2, 7, 0], [3, 2, 5, 0]], [[5, 5, 6, 0], [4, 4, 0, 3], [3, 4, 4, 0]], [[3, 5, 5, 0], [3, 4, 0, 9], [3, 3, 4, 0]], [[3, 4, 7, 0], [3, 4, 6, 0], [3, 4, 5, 0]], [[4, 4, 7, 0], [3, 4, 4, 0], [2, 4, 1, 0]], [[4, 2, 0, 8], [4, 1, 3, 0], [3, 1, 0, 6]], [[5, 3, 8, 0], [4, 2, 0, 2], [3, 1, 0, 2]], [[4, 5, 4, 0], [4, 3, 3, 0], [2, 3, 3, 0]], [[5, 5, 0, 6], [4, 4, 4, 0], [4, 2, 0, 1]], [[3, 4, 0, 8], [1, 3, 1, 0], [1, 2, 1, 0]], [[5, 4, 8, 0], [4, 4, 7, 0], [3, 3, 7, 0]], [[3, 3, 4, 0], [3, 2, 0, 7], [3, 2, 3, 0]], [[4, 3, 4, 0], [4, 2, 0, 1], [4, 1, 0, 1]], [[3, 3, 8, 0], [2, 3, 0, 5], [2, 3, 0, 4]], [[3, 4, 0, 8], [3, 3, 4, 0], [3, 3, 3, 0]], [[4, 5, 0, 4], [4, 4, 0, 4], [4, 4, 5, 0]], [[3, 3, 6, 0], [2, 3, 3, 0], [2, 1, 0, 4]], [[4, 3, 7, 0], [3, 3, 6, 0], [1, 2, 5, 0]], [[1, 4, 0, 3], [1, 3, 2, 0], [1, 3, 0, 1]], [[3, 4, 0, 3], [2, 4, 4, 0], [2, 4, 0, 2]], [[4, 3, 10, 0], [4, 2, 0, 5], [4, 1, 2, 0]], [[2, 3, 0, 6], [2, 3, 6, 0], [2, 3, 5, 0]], [[4, 4, 0, 8], [3, 3, 5, 0], [2, 3, 0, 8]], [[2, 5, 8, 0], [1, 4, 6, 0], [1, 4, 0, 1]], [[5, 5, 0, 5], [3, 3, 9, 0], [2, 3, 9, 0]], [[4, 4, 0, 6], [4, 4, 0, 5], [4, 4, 8, 0]], [[4, 2, 0, 6], [4, 2, 3, 0], [4, 2, 0, 2]], [[5, 4, 0, 3], [4, 4, 0, 3], [3, 4, 0, 1]], [[3, 5, 0, 8], [2, 3, 0, 7], [2, 1, 0, 6]], [[4, 4, 0, 2], [3, 4, 0, 2], [3, 4, 2, 0]], [[3, 3, 7, 0], [3, 3, 0, 4], [3, 3, 0, 3]], [[4, 3, 9, 0], [3, 3, 0, 8], [3, 2, 0, 8]], [[5, 2, 0, 7], [4, 2, 9, 0], [4, 2, 8, 0]], [[4, 4, 6, 0], [3, 4, 0, 8], [2, 4, 0, 7]], [[1, 2, 0, 8], [1, 2, 0, 7], [1, 1, 0, 7]], [[2, 3, 0, 2], [1, 3, 0, 1], [1, 3, 6, 0]], [[1, 4, 8, 0], [1, 4, 0, 9], [1, 4, 0, 8]], [[2, 4, 4, 0], [2, 4, 0, 2], [2, 3, 3, 0]], [[3, 5, 0, 9], [3, 3, 4, 0], [3, 2, 0, 9]], [[4, 2, 9, 0], [2, 2, 8, 0], [2, 2, 7, 0]], [[2, 3, 0, 9], [1, 2, 0, 9], [1, 2, 0, 7]], [[1, 3, 0, 2], [1, 2, 10, 0], [1, 1, 10, 0]], [[3, 3, 6, 0], [2, 3, 0, 3], [1, 3, 4, 0]], [[5, 5, 4, 0], [5, 2, 3, 0], [5, 2, 2, 0]], [[2, 3, 0, 3], [1, 2, 0, 3], [1, 2, 2, 0]], [[2, 3, 0, 1], [2, 2, 7, 0], [2, 1, 0, 1]], [[2, 5, 5, 0], [1, 3, 4, 0], [1, 3, 3, 0]], [[4, 3, 0, 5], [4, 2, 0, 3], [4, 2, 0, 2]], [[1, 2, 6, 0], [1, 2, 4, 0], [1, 2, 0, 3]], [[3, 3, 9, 0], [2, 2, 8, 0], [2, 2, 7, 0]], [[3, 5, 8, 0], [2, 5, 7, 0], [1, 5, 6, 0]], [[3, 3, 0, 7], [2, 2, 0, 6], [1, 2, 0, 5]], [[2, 4, 0, 4], [2, 4, 7, 0], [2, 3, 0, 1]], [[3, 2, 0, 6], [3, 2, 3, 0], [3, 2, 2, 0]], [[5, 1, 0, 4], [4, 1, 0, 3], [4, 1, 2, 0]], [[5, 3, 0, 5], [4, 3, 0, 5], [3, 3, 5, 0]], [[3, 2, 0, 9], [3, 2, 7, 0], [1, 2, 0, 9]], [[4, 5, 0, 8], [3, 5, 8, 0], [3, 5, 7, 0]], [[2, 4, 6, 0], [2, 4, 0, 6], [1, 4, 0, 3]], [[4, 4, 0, 7], [3, 4, 0, 4], [2, 4, 4, 0]], [[0, 0, 0, 0]]]
